solutions/Insertion/cheapest/X-n129-k18.txt
[[[3], [3, 86], [3, 86, 91], [3, 86, 91, 93], [3, 86, 91, 93, 75], [3, 86, 91, 93, 103, 75], [3, 86, 91, 93, 103, 66, 75], [3, 86, 91, 93, 103, 66, 64, 75], [3, 86, 91, 93, 103, 66, 64, 89, 75], [3, 86, 91, 93, 103, 66, 64, 89, 75]], [[15], [15, 88], [15, 88, 90], [15, 88, 90, 44], [15, 88, 90, 44, 18], [15, 88, 90, 44, 18]], [[78], [78, 50], [78, 50, 20], [78, 50, 20, 119], [78, 50, 20, 119, 53], [78, 50, 20, 119, 53, 123], [78, 50, 20, 119, 53, 123, 70], [78, 50, 20, 119, 53, 123, 70, 127], [78, 50, 20, 119, 53, 123, 70, 127]], [[24], [24, 47], [24, 47, 38], [24, 47, 38, 118], [24, 47, 38, 118, 28], [24, 47, 38, 118, 28, 74], [24, 47, 38, 118, 28, 74]], [[52], [52, 113], [52, 113, 27], [52, 113, 27, 82], [52, 113, 27, 82, 63], [52, 113, 27, 82, 63]], [[5], [5, 106], [5, 106, 80], [5, 106, 80, 68], [5, 106, 80, 68, 98], [5, 106, 80, 68, 98, 4], [5, 106, 80, 68, 98, 4, 87], [5, 106, 80, 68, 98, 4, 87, 121], [5, 106, 80, 68, 98, 4, 87, 121, 94], [5, 106, 80, 68, 98, 4, 87, 121, 94]], [[59], [59, 1], [59, 1, 23], [59, 1, 23, 39], [59, 1, 23, 39, 67], [59, 1, 23, 39, 67, 43], [59, 1, 23, 39, 67, 43]], [[14], [14, 125], [14, 125, 117], [14, 125, 117, 115], [14, 125, 117, 115, 122], [14, 125, 117, 115, 122, 102], [14, 125, 117, 115, 122, 102]], [[9], [9, 124], [9, 124, 19], [9, 124, 19, 54], [9, 124, 19, 54, 7], [9, 124, 19, 54, 7, 6], [9, 124, 19, 54, 7, 6, 22], [9, 124, 19, 54, 7, 6, 22]], [[83], [83, 31], [83, 31, 97], [83, 31, 97, 69], [83, 31, 97, 69, 109], [83, 31, 97, 69, 109, 51], [83, 31, 97, 69, 109, 51, 120], [83, 31, 97, 69, 109, 51, 120, 42], [83, 31, 97, 69, 109, 51, 120, 42, 99], [83, 31, 97, 69, 109, 51, 120, 42, 99]], [[111], [111, 81], [111, 81, 128], [111, 81, 128, 107], [111, 81, 128, 107, 36], [111, 81, 128, 107, 36]], [[30], [30, 84], [30, 84, 25], [30, 84, 25, 62], [30, 84, 25, 62, 56], [30, 84, 25, 62, 56, 77], [30, 84, 25, 62, 56, 77, 35], [30, 84, 25, 62, 56, 77, 35]], [[60], [60, 13], [60, 13, 57], [60, 13, 57, 46], [60, 13, 57, 46, 33], [60, 13, 57, 46, 33, 21], [60, 13, 57, 46, 33, 21, 34], [60, 13, 57, 46, 33, 21, 34]], [[8], [8, 16], [8, 16, 32], [8, 16, 32, 114], [8, 16, 32, 114, 12], [8, 16, 32, 114, 12, 37], [8, 16, 32, 114, 12, 37, 96], [8, 16, 32, 114, 12, 37, 96]], [[26], [26, 126], [26, 126, 71], [26, 126, 71, 108], [26, 126, 71, 108, 100], [26, 126, 71, 108, 100, 72], [26, 126, 71, 108, 100, 72]], [[112], [112, 73], [112, 73, 49], [112, 73, 49, 92], [112, 73, 49, 92, 116], [112, 73, 49, 92, 116, 104], [112, 73, 49, 92, 116, 104, 105], [112, 73, 49, 92, 116, 104, 105]], [[29], [29, 45], [29, 45, 48], [29, 45, 48, 58], [29, 45, 48, 58, 101], [29, 45, 48, 58, 101, 17], [29, 45, 48, 58, 101, 17, 110], [29, 45, 48, 58, 101, 17, 110]], [[65], [65, 11], [65, 11, 76], [65, 11, 76, 79], [65, 11, 76, 79, 10], [65, 11, 76, 79, 10, 85], [65, 11, 76, 79, 10, 85, 61], [65, 11, 76, 79, 10, 85, 61, 41], [65, 11, 76, 79, 10, 85, 61, 41]], [[95], [95, 40], [95, 40, 55], [95, 40, 55, 2], [95, 40, 55, 2]]]