solutions/Insertion/cheapest/X-n129-k18.sol
Route #1: 3 86 91 93 103 66 64 89 75
Route #2: 15 88 90 44 18
Route #3: 78 50 20 119 53 123 70 127
Route #4: 24 47 38 118 28 74
Route #5: 52 113 27 82 63
Route #6: 5 106 80 68 98 4 87 121 94
Route #7: 59 1 23 39 67 43
Route #8: 14 125 117 115 122 102
Route #9: 9 124 19 54 7 6 22
Route #10: 83 31 97 69 109 51 120 42 99
Route #11: 111 81 128 107 36
Route #12: 30 84 25 62 56 77 35
Route #13: 60 13 57 46 33 21 34
Route #14: 8 16 32 114 12 37 96
Route #15: 26 126 71 108 100 72
Route #16: 112 73 49 92 116 104 105
Route #17: 29 45 48 58 101 17 110
Route #18: 65 11 76 79 10 85 61 41
Route #19: 95 40 55 2
cost: 34057
